c read Graph
c width = 10
c time = 1166 ms
c width = 3
c time = 1343 ms
c width = 3
c time = 3732 ms
s td 27 4 30
b 1 1 2 11
b 2 2 3 11 12
b 3 8 9 19 20
b 4 3 11 12 22
b 5 3 12 13 22
b 6 8 19 20 29
b 7 3 13 22 23
b 8 3 13 23 24
b 9 8 19 28 29
b 10 3 4 13 24
b 11 4 13 14 24
b 12 4 14 15 24
b 13 8 18 19 28
b 14 4 15 24 25
b 15 4 15 25 26
b 16 8 18 27 28
b 17 4 5 15 26
b 18 5 15 16 26
b 19 5 6 16 26
b 20 8 17 18 27
b 21 7 8 17 27
b 22 6 7 16 26
b 23 7 16 17 26
b 24 7 17 26 27
b 25 20 29 30
b 26 11 21 22
b 27 9 10 20
1 2
2 4
3 27
3 6
4 26
4 5
5 7
6 25
6 9
7 8
8 10
9 13
10 11
11 12
12 14
13 16
14 15
15 17
16 20
17 18
18 19
19 22
20 21
21 24
22 23
23 24
